NAME: ch130
TYPE: TSP
COMMENT: 130 city problem (Churritz)
DIMENSION: 10
EDGE_WEIGHT_TYPE: EUC_2D
NODE_COORD_SECTION
1 334.5909245845 161.7809319139
2 397.6446634067 262.8165330708
3 503.8741827107 172.8741151168
4 444.0479403502 384.6491809647
5 311.6137146746 2.0091699828
6 662.8551011379 549.2301263653
7 40.0979030612 187.2375430791
8 526.8941409181 215.7079092185
9 209.1887938487 691.0262291948
10 683.2674131973 414.2096286906
